
Log started (V12.10.0.0) Sun Apr  4 08:56:54 2021


Problem 'asset.lp' read.
Read time = 0.00 sec. (0.28 ticks)
New value for default parallel thread count: 1
New value for time limit in seconds: 300
Version identifier: 12.10.0.0 | 2019-11-26 | 843d4de
CPXPARAM_Threads                                 1
CPXPARAM_TimeLimit                               300
Found incumbent of value -0.910110 after 0.00 sec. (0.13 ticks)
Tried aggregator 3 times.
MIP Presolve eliminated 482 rows and 226 columns.
MIP Presolve modified 2341 coefficients.
Aggregator did 949 substitutions.
Reduced MIP has 1188 rows, 1324 columns, and 5781 nonzeros.
Reduced MIP has 1151 binaries, 119 generals, 0 SOSs, and 0 indicators.
Presolve time = 0.01 sec. (13.29 ticks)
Probing fixed 47 vars, tightened 4 bounds.
Probing time = 0.01 sec. (7.79 ticks)
Cover probing fixed 0 vars, tightened 39 bounds.
Tried aggregator 1 time.
Detecting symmetries...
MIP Presolve eliminated 55 rows and 55 columns.
MIP Presolve modified 830 coefficients.
Reduced MIP has 1133 rows, 1269 columns, and 5467 nonzeros.
Reduced MIP has 1100 binaries, 115 generals, 0 SOSs, and 0 indicators.
Presolve time = 0.00 sec. (3.66 ticks)
Probing time = 0.00 sec. (2.81 ticks)
Clique table members: 3438.
MIP emphasis: balance optimality and feasibility.
MIP search method: dynamic search.
Parallel mode: none, using 1 thread.
Root relaxation solution time = 0.01 sec. (15.77 ticks)

        Nodes                                         Cuts/
   Node  Left     Objective  IInf  Best Integer    Best Bound    ItCnt     Gap

*     0+    0                           -0.9101      573.9196              --- 
      0     0      411.3344   216       -0.9101      411.3344      848     --- 
      0     0      407.3954   216       -0.9101     Cuts: 383     1167     --- 
      0     0      406.9073   216       -0.9101     Cuts: 383     1592     --- 
      0     0      406.2912   216       -0.9101     Cuts: 371     1828     --- 
      0     0      406.2895   216       -0.9101     Cuts: 303     2040     --- 
      0     0      406.2876   216       -0.9101     Cuts: 348     2215     --- 
*     0+    0                           18.9988      406.2876              --- 
*     0+    0                           32.7873      406.2876              --- 
      0     0        cutoff             32.7873      406.2876     2215     --- 
Detecting symmetries...
      0     0      406.2828   216       32.7873     Cuts: 255     2375     --- 
      0     0      406.2771   216       32.7873     Cuts: 141     2483     --- 
      0     0      406.2694   216       32.7873     Cuts: 150     2554     --- 
*     0+    0                           51.4560      406.2694           689.55%
*     0+    0                           98.8296      406.2694           311.08%
*     0+    0                          233.1875      406.2694            74.22%
*     0+    0                          269.3018      406.2694            50.86%
      0     0        cutoff            269.3018      406.2694     2554   50.86%
Detecting symmetries...
      0     2      406.2694   227      269.3018      406.2694     2554   50.86%
Elapsed time = 0.39 sec. (441.99 ticks, tree = 0.01 MB, solutions = 6)
     40    42      389.5340   130      269.3018      406.2694     6784   50.86%
*   128+  102                          269.3025      406.2694            50.86%
    142   118      404.5498   183      269.3025      406.2658    10236   50.86%
*   230+  175                          363.9488      406.2658            11.63%
    238   185      363.9527    29      363.9488      406.2658    14067   11.63%
*   240+  185                          363.9492      406.2658            11.63%
*   244   187      integral     0      363.9492      406.2658    14080   11.63%
    296   239      391.6172   145      363.9492      406.2654    16401   11.63%
*   340+  260                          364.5034      406.2654            11.46%
    366   288      405.6675   190      364.5034      406.2634    19040   11.46%
    456   374      388.4262   200      364.5034      406.2628    21700   11.46%

Performing restart 1

Repeating presolve.
Tried aggregator 2 times.
MIP Presolve modified 1021 coefficients.
Aggregator did 8 substitutions.
Reduced MIP has 1125 rows, 1261 columns, and 4658 nonzeros.
Reduced MIP has 1092 binaries, 115 generals, 0 SOSs, and 0 indicators.
Presolve time = 0.01 sec. (6.03 ticks)
Tried aggregator 1 time.
Reduced MIP has 1125 rows, 1261 columns, and 4658 nonzeros.
Reduced MIP has 1092 binaries, 115 generals, 0 SOSs, and 0 indicators.
Presolve time = 0.00 sec. (3.42 ticks)
Represolve time = 0.03 sec. (24.18 ticks)
    466     0      405.8728   216      364.5034     Cuts: 194    24176   11.35%
    466     0      405.6881   216      364.5034     Cuts: 163    24541   11.30%
    466     0      405.0811   216      364.5034     Cuts: 156    24949   11.13%
*   466+    0                          364.5036      405.0811            11.13%
    466     0      404.3718   216      364.5036     Cuts: 227    25160   10.94%
    466     0      403.9197   216      364.5036     Cuts: 136    25422   10.81%
    466     0      402.4616   216      364.5036     Cuts: 109    25895   10.41%
    466     0      401.8535   216      364.5036     Cuts: 152    26493   10.25%
*   466+    0                          364.5039      401.8535            10.25%
*   466+    0                          364.5042      401.8535            10.25%
*   466+    0                          364.5043      401.8535            10.25%
*   466+    0                          364.5047      401.8535            10.25%
    466     0        cutoff            364.5047      401.8535    26493   10.25%
    466     0      401.3172   216      364.5047      Cuts: 89    26793   10.10%
    466     0      400.3417   216      364.5047     Cuts: 141    27208    9.83%
    466     0      400.1476   216      364.5047     Cuts: 123    27398    9.78%
    466     0      399.4159   216      364.5047      Cuts: 65    27550    9.58%
    466     0      398.9793   216      364.5047      Cuts: 75    27685    9.46%
*   466+    0                          364.7132      398.9793             9.40%
*   466+    0                          366.7327      398.9793             8.79%
*   466+    0                          366.7332      398.9793             8.79%
    466     0        cutoff            366.7332      398.9793    27685    8.79%
    466     0      398.5966   216      366.7332      Cuts: 70    27826    8.69%
    466     0      398.4518   216      366.7332      Cuts: 59    27904    8.65%
    466     0      398.2007   216      366.7332      Cuts: 81    27981    8.58%
    466     0      397.8659   216      366.7332      Cuts: 89    28181    8.49%
    466     0      397.7963   216      366.7332      Cuts: 75    28308    8.47%
    466     0      397.6674   216      366.7332      Cuts: 70    28442    8.44%
    466     0      397.3046   216      366.7332      Cuts: 75    28637    8.34%
    466     0      397.0172   216      366.7332      Cuts: 99    28891    8.26%
*   466+    0                          366.7333      397.0172             8.26%
*   466+    0                          367.8325      397.0172             7.93%
*   466+    0                          367.8326      397.0172             7.93%
*   466+    0                          370.0341      397.0172             7.29%
    466     0        cutoff            370.0341      397.0172    28891    7.29%
    466     0      396.9698   216      370.0341      Cuts: 83    29013    7.28%
    466     0      396.8615   216      370.0341      Cuts: 72    29102    7.25%
    466     0      396.7638   216      370.0341      Cuts: 72    29252    7.22%
    466     0      396.7103   216      370.0341      Cuts: 50    29415    7.21%
    466     0      396.6470   216      370.0341      Cuts: 58    29559    7.19%
    466     0      396.5329   216      370.0341      Cuts: 86    29809    7.16%
    466     0      396.4825   216      370.0341      Cuts: 54    29930    7.15%
    466     0      396.4749   216      370.0341      Cuts: 48    30033    7.15%
*   466+    0                          370.0341      396.4749             7.15%
*   466+    0                          370.0345      396.4749             7.15%
*   466+    0                          370.0345      396.4749             7.15%
    466     0      396.4734   216      370.0345      Cuts: 52    30111    7.14%
    466     0      396.4472   216      370.0345      Cuts: 50    30294    7.14%
*   466+    0                          370.0347      396.4472             7.14%
*   466+    0                          370.0347      396.4472             7.14%
    466     2      396.4472   214      370.0347      396.4452    30294    7.14%
    469     5      396.2378   148      370.0347      396.4018    30782    7.13%
    473     9      392.6583   161      370.0347      396.4018    31502    7.13%
    509    29      389.9374   158      370.0347      395.5918    35383    6.91%
Elapsed time = 6.47 sec. (7630.13 ticks, tree = 0.13 MB, solutions = 28)
    606    98      385.3746   131      370.0347      393.7871    44904    6.42%
    638   118      382.8883   169      370.0347      390.2667    50098    5.47%
    730   194      382.9746   134      370.0347      389.8274    58659    5.35%
    811   249      381.0905   158      370.0347      388.9565    67527    5.11%
*   866+  299                          370.0489      388.9565             5.11%
    932   355      373.0233   154      370.0489      388.1828    76385    4.90%
*   946+  265                          373.7399      388.0009             3.82%
   1024   314      374.0986   129      373.7399      387.5766    84650    3.70%
*  1046+  321                          373.7411      387.2368             3.61%
   1098   342      378.3322   162      373.7411      386.3963    92644    3.39%
   1198   383      385.3080   145      373.7411      385.8007   101546    3.23%
   1290   428      378.5977   160      373.7411      385.3882   111201    3.12%
*  1416+  504                          373.7497      385.0286             3.02%
   1420   510      373.7557    56      373.7497      385.0286   121359    3.02%
Elapsed time = 13.86 sec. (17273.78 ticks, tree = 0.64 MB, solutions = 32)
*  1436+  524                          373.7499      385.0286             3.02%
*  1466+  530                          373.7515      384.8669             2.97%
   1518   554      381.6423   148      373.7515      384.4125   130149    2.85%
*  1566+  564                          373.7531      384.1857             2.79%
   1656   611      382.3671   167      373.7531      384.0232   139695    2.75%
   1766   645      378.7552   153      373.7531      383.6205   148778    2.64%
   1880   663      373.8642   140      373.7531      383.1395   158275    2.51%
   1969   686      380.6219   124      373.7531      382.8783   167181    2.44%
   2078   706      376.9814   154      373.7531      382.4615   175985    2.33%
   2180   753      378.9863   171      373.7531      382.2178   183910    2.26%
   2276   760      380.2214   136      373.7531      381.7565   192525    2.14%
   2368   759      379.6002   151      373.7531      381.3400   201791    2.03%
   2439   766        cutoff            373.7531      381.0614   211631    1.96%
Elapsed time = 21.33 sec. (27011.10 ticks, tree = 0.86 MB, solutions = 35)
   2516   764      374.3981   145      373.7531      380.8021   221062    1.89%
*  2566+  662                          374.3600      380.7534             1.71%
*  2576+  672                          374.3601      380.7534             1.71%
*  2582   676      integral     0      374.3603      380.7534   222971    1.71%
   2663   653      377.3835   155      374.3603      380.4411   232617    1.62%
*  2682+  644                          374.3605      380.3728             1.61%
   2746   627      375.9108   172      374.3605      380.1078   242648    1.54%
   2835   599      377.9271   182      374.3605      379.6116   251887    1.40%
   2916   567      375.4288   108      374.3605      379.1618   261706    1.28%
   3011   534        cutoff            374.3605      378.7811   270739    1.18%
   3127   458      374.7128   154      374.3605      378.1829   280678    1.02%
   3235   402      371.4823   152      374.3605      377.7345   290011    0.90%
   3384   303        cutoff            374.3605      376.9293   300165    0.69%
Elapsed time = 28.28 sec. (36003.33 ticks, tree = 0.34 MB, solutions = 39)
   3553   182        cutoff            374.3605      375.9982   309713    0.44%

GUB cover cuts applied:  46
Clique cuts applied:  27
Cover cuts applied:  6
Implied bound cuts applied:  91
Flow cuts applied:  19
Mixed integer rounding cuts applied:  93
Zero-half cuts applied:  68
Lift and project cuts applied:  14
Gomory fractional cuts applied:  5

Root node processing (before b&c):
  Real time             =    0.39 sec. (442.70 ticks)
Sequential b&c:
  Real time             =   28.92 sec. (36847.46 ticks)
                          ------------
Total (root+branch&cut) =   29.30 sec. (37290.16 ticks)

Solution pool: 40 solutions saved.

MIP - Integer optimal, tolerance (0.0001/1e-06):  Objective =  3.7436054069e+02
Current MIP best bound =  3.7439188113e+02 (gap = 0.0313404, 0.01%)
Solution time =   29.30 sec.  Iterations = 313076  Nodes = 3690 (56)
Deterministic time = 37290.17 ticks  (1272.58 ticks/sec)


Incumbent solution
Variable Name           Solution Value
F                           420.000000
f1                            0.949459
f2                           44.690000
y17                           1.000000
y20                           1.000000
y75                           1.000000
y89                           1.000000
y144                          1.000000
y149                          1.000000
y183                          1.000000
y237                          1.000000
y258                          1.000000
y274                          1.000000
y284                          1.000000
y241                          1.000000
y168                          1.000000
y76                           1.000000
y204                          1.000000
y226                          1.000000
y221                          1.000000
y52                           1.000000
y287                          1.000000
y94                           1.000000
y199                          1.000000
y270                          1.000000
y235                          1.000000
y35                           1.000000
y177                          1.000000
y128                          1.000000
y294                          1.000000
s1                            6.000000
s4                            6.000000
s17                           6.518077
s20                           6.767342
s24                           6.000000
s31                           6.000000
s38                           6.000000
s39                           6.000000
s47                           6.000000
s75                           6.131839
s89                           6.080569
s117                          6.000000
s122                          6.000000
s133                          6.000000
s134                          6.000000
s138                          6.000000
s139                          6.000000
s144                          6.507745
s149                          6.618513
s164                          6.000000
s178                          6.000000
s183                          6.772595
s187                          6.000000
s188                          6.000000
s191                          6.000000
s211                          6.000000
s214                          6.000000
s219                          6.000000
s237                          6.221927
s238                          6.000000
s240                          6.000000
s245                          6.000000
s258                          6.366666
s263                          6.000000
s264                          6.000000
s272                          6.000000
s274                          6.229257
s282                          6.000000
s284                          6.323595
s15                           6.010000
s241                          6.849673
s175                          6.050000
s174                          6.110000
s168                          6.770828
s76                           7.255189
s147                          6.640000
s204                          7.554325
s114                          6.760000
s226                          7.579051
s248                          6.840000
s221                          7.845363
s52                           7.750415
s287                          7.802904
s94                           7.995275
s199                          7.881823
s270                          7.826145
s235                          7.883784
s35                           7.825067
s177                          7.813176
s128                          7.241565
s294                          8.277466
x143x76x1                     1.000000
x143x199x1                    1.000000
x2x17x1                       1.000000
x2x149x1                      1.000000
x109x17x1                     1.000000
x256x149x1                    1.000000
x150x183x1                    2.000000
x208x274x1                    1.000000
x40x237x1                     1.000000
x97x20x1                      2.000000
x109x144x2                    1.000000
x152x128x2                    1.000000
x202x274x2                    1.000000
x269x75x2                     1.000000
x218x241x2                    1.000000
x297x226x2                    1.000000
x297x235x2                    1.000000
x208x89x2                     1.000000
x212x258x2                    2.000000
x40x284x2                     1.000000
x152x128x3                    1.000000
x202x89x3                     1.000000
x256x168x3                    1.000000
x269x75x3                     1.000000
x218x76x3                     1.000000
x169x241x3                    1.000000
x169x35x3                     1.000000
x116x144x3                    1.000000
x116x168x3                    1.000000
x61x237x3                     1.000000
x61x284x3                     1.000000
x17x199x1                     1.000000
x17x270x1                     1.000000
x20x0x1                       2.000000
x75x0x2                       1.000000
x75x235x3                     1.000000
x89x294x2                     1.000000
x89x204x3                     1.000000
x144x94x2                     1.000000
x144x52x3                     1.000000
x149x287x1                    1.000000
x149x270x1                    1.000000
x183x0x1                      2.000000
x237x35x1                     1.000000
x237x52x3                     1.000000
x258x287x2                    1.000000
x258x177x2                    1.000000
x274x204x1                    1.000000
x274x226x2                    1.000000
x284x0x2                      1.000000
x284x177x3                    1.000000
x241x0x2                      1.000000
x241x94x3                     1.000000
x168x221x3                    2.000000
x76x0x1                       1.000000
x76x0x3                       1.000000
x204x0x1                      1.000000
x204x0x3                      1.000000
x226x0x2                      2.000000
x221x0x3                      2.000000
x52x0x3                       2.000000
x287x0x1                      1.000000
x287x0x2                      1.000000
x94x0x2                       1.000000
x94x0x3                       1.000000
x199x0x1                      2.000000
x270x0x1                      2.000000
x235x0x2                      1.000000
x235x0x3                      1.000000
x35x0x1                       1.000000
x35x0x3                       1.000000
x177x0x2                      1.000000
x177x0x3                      1.000000
x128x0x2                      1.000000
x128x294x3                    1.000000
x294x0x2                      1.000000
x294x0x3                      1.000000
s143                          5.920628
z143z76z1                     1.000000
z143z199z1                    1.000000
z143z270z1                    1.000000
s2                            4.839480
z2z17z1                       1.000000
z2z149z1                      1.000000
z2z199z1                      1.000000
z2z270z1                      1.000000
s109                          4.825700
z109z17z1                     1.000000
z109z144z2                    1.000000
z109z199z1                    1.000000
z109z270z1                    1.000000
s152                          5.014400
z152z128z2                    1.000000
z152z128z3                    1.000000
s202                          4.777350
z202z47z2                     1.000000
z202z89z3                     1.000000
z202z274z2                    1.000000
z202z168z3                    1.000000
z202z114z3                    1.000000
z202z226z2                    1.000000
z202z248z3                    1.000000
z202z221z3                    1.000000
z202z52z3                     1.000000
s256                          4.971680
z256z149z1                    1.000000
z256z168z3                    1.000000
z256z221z3                    1.000000
z256z199z1                    1.000000
z256z270z1                    1.000000
s269                          4.915970
z269z75z2                     1.000000
z269z75z3                     1.000000
z269z168z3                    1.000000
z269z114z3                    1.000000
z269z226z2                    1.000000
z269z248z3                    1.000000
z269z221z3                    1.000000
z269z52z3                     1.000000
s218                          5.057820
z218z241z2                    1.000000
z218z76z3                     1.000000
s150                          5.058030
z150z183z1                    1.000000
z150z199z1                    1.000000
z150z270z1                    1.000000
s169                          5.125830
z169z241z3                    1.000000
z169z52z3                     1.000000
z169z35z3                     1.000000
s297                          5.257990
z297z226z2                    1.000000
z297z235z2                    1.000000
s116                          5.073750
z116z144z3                    1.000000
z116z168z3                    1.000000
z116z114z3                    1.000000
z116z248z3                    1.000000
z116z221z3                    1.000000
z116z52z3                     1.000000
s61                           4.961520
z61z237z3                     1.000000
z61z284z3                     1.000000
z61z114z3                     1.000000
z61z248z3                     1.000000
z61z221z3                     1.000000
z61z52z3                      1.000000
s208                          4.823590
z208z89z2                     1.000000
z208z274z1                    1.000000
z208z226z2                    1.000000
z208z199z1                    1.000000
z208z270z1                    1.000000
s212                          4.967640
z212z258z2                    1.000000
z212z226z2                    1.000000
s40                           4.960690
z40z237z1                     1.000000
z40z284z2                     1.000000
z40z226z2                     1.000000
z40z199z1                     1.000000
z40z270z1                     1.000000
s97                           5.106590
z97z20z1                      1.000000
z97z199z1                     1.000000
z97z270z1                     1.000000
z17z199z1                     1.000000
z17z270z1                     1.000000
z75z235z3                     1.000000
z89z204z3                     1.000000
z89z294z2                     1.000000
z144z52z3                     1.000000
z144z94z2                     1.000000
z149z287z1                    1.000000
z149z270z1                    1.000000
z237z52z3                     1.000000
z237z35z1                     1.000000
z258z287z2                    1.000000
z258z177z2                    1.000000
z274z204z1                    1.000000
z274z226z2                    1.000000
z284z177z3                    1.000000
z241z94z3                     1.000000
z168z221z3                    1.000000
z128z294z3                    1.000000
All other variables in the range 1-2503 are 0.
